n_res = 4;
rc = [ 0, 0, 0, 0 ];
n_tasks = 30;
d = [ 3, 4, 7, 1, 1, 2, 2, 10, 5, 10, 3, 6, 10, 8, 1, 10, 9, 8, 9, 4, 7, 2, 1, 6, 6, 7, 6, 6, 3, 7 ];
rr = [| 0, 0, 0, 0, 0, 0, 0, 0, 0, 0, 0, 0, 0, 0, 0, 0, 0, 0, 0, 0, 0, 0, 0, 0, 0, 0, 0, 0, 0, 0
      | 0, 0, 0, 0, 0, 0, 0, 0, 0, 0, 0, 0, 0, 0, 0, 0, 0, 0, 0, 0, 0, 0, 0, 0, 0, 0, 0, 0, 0, 0
      | 0, 0, 0, 0, 0, 0, 0, 0, 0, 0, 0, 0, 0, 0, 0, 0, 0, 0, 0, 0, 0, 0, 0, 0, 0, 0, 0, 0, 0, 0
      | 0, 0, 0, 0, 0, 0, 0, 0, 0, 0, 0, 0, 0, 0, 0, 0, 0, 0, 0, 0, 0, 0, 0, 0, 0, 0, 0, 0, 0, 0 |];
suc = [ { 5, 7, 13 },
       { 4, 9, 11 },
       { 16, 17, 23 },
       { 13, 14, 15 },
       { 6, 9, 18 },
       { 8, 10, 12 },
       { 11, 14, 25 },
       { 14, 17, 21 },
       { 15, 17, 28 },
       { 21, 23, 29 },
       { 12, 16, 24 },
       { 15, 27 },
       { 16, 19, 23 },
       { 19, 30 },
       { 22, 26 },
       { 20, 29 },
       { 22, 25 },
       { 19, 20, 29 },
       { 24 },
       { 21 },
       { 22, 26, 27 },
       { 30 },
       { 24, 25, 27 },
       { 28 },
       { 26 },
       { 30 },
       { 28 },
       {  },
       {  },
       {  } ];
